p cnf 40 40
-11 -15 40 0
3 -4 30 0
13 40 -38 0
31 -13 -37 0
-4 -39 -1 0
-35 2 38 0
-25 35 -7 0
38 -1 -7 0
-37 8 40 0
12 24 36 0
1 -5 21 0
-21 13 19 0
-33 -16 -39 0
-7 21 -8 0
-37 -6 28 0
37 -23 17 0
15 -20 -19 0
3 -8 -36 0
30 -40 32 0
-7 -20 -25 0
39 -11 18 0
-36 4 -29 0
-5 35 25 0
-39 1 30 0
-23 18 5 0
10 -2 5 0
11 -1 -22 0
21 8 -17 0
-31 -40 35 0
2 40 15 0
-20 25 18 0
-26 -6 -7 0
19 5 -38 0
-28 -27 4 0
40 -25 -26 0
28 -16 -32 0
18 -14 -40 0
-16 32 1 0
-15 40 14 0
-36 -25 38 0
